TestGraphs/Special/circle6
Problem:    
Rows:       215
Columns:    102 (102 integer, 102 binary)
Non-zeros:  594
Status:     INTEGER OPTIMAL
Objective:  obj = 4 (MINimum)

   No.   Row name        Activity     Lower bound   Upper bound
------ ------------    ------------- ------------- -------------
     1 r.4                         1                           1 
     2 r.5                         0                           0 
     3 r.6                         0                           0 
     4 r.7                        -1                           0 
     5 r.8                        -1                           0 
     6 r.9                         1                           1 
     7 r.10                        0                           0 
     8 r.11                       -1                           0 
     9 r.12                       -1                           0 
    10 r.13                        0                           1 
    11 r.14                        0                           0 
    12 r.15                        0                           0 
    13 r.16                        1                           1 
    14 r.17                        0                           0 
    15 r.18                        0                           1 
    16 r.19                        1                           1 
    17 r.20                        0                           0 
    18 r.21                        0                           0 
    19 r.22                        0                           0 
    20 r.23                        0                           0 
    21 r.24                        1                           1 
    22 r.25                        0                           0 
    23 r.26                        0                           0 
    24 r.27                        0                           0 
    25 r.28                        1                           1 
    26 r.29                        0                           0 
    27 r.30                        0                           0 
    28 r.31                        1                           1 
    29 r.32                        0                           0 
    30 r.33                        0                           1 
    31 r.34                        1                           1 
    32 r.35                       -1                           0 
    33 r.36                       -1                           0 
    34 r.37                       -1                           0 
    35 r.38                        0                           0 
    36 r.39                        1                           1 
    37 r.40                       -1                           0 
    38 r.41                       -1                           0 
    39 r.42                        0                           0 
    40 r.43                        1                           1 
    41 r.44                       -1                           0 
    42 r.45                        0                           0 
    43 r.46                        1                           1 
    44 r.47                        0                           0 
    45 r.48                       -1                           1 
    46 r.49                        1                           1 
    47 r.50                        0                           0 
    48 r.51                        0                           0 
    49 r.52                        0                           0 
    50 r.53                        0                           0 
    51 r.54                        1                           1 
    52 r.55                        0                           0 
    53 r.56                        0                           0 
    54 r.57                        0                           0 
    55 r.58                        1                           1 
    56 r.59                        0                           0 
    57 r.60                        0                           0 
    58 r.61                        1                           1 
    59 r.62                        0                           0 
    60 r.63                        0                           1 
    61 r.64                        1                           1 
    62 r.65                       -1                           0 
    63 r.66                       -1                           0 
    64 r.67                        0                           0 
    65 r.68                       -1                           0 
    66 r.69                        1                           1 
    67 r.70                       -1                           0 
    68 r.71                        0                           0 
    69 r.72                       -1                           0 
    70 r.73                        1                           1 
    71 r.74                        0                           0 
    72 r.75                       -1                           0 
    73 r.76                       -1                           1 
    74 r.77                        0                           0 
    75 r.78                        1                           1 
    76 r.79                        1                           1 
    77 r.80                        0                           0 
    78 r.81                        0                           0 
    79 r.82                        0                           0 
    80 r.83                        0                           0 
    81 r.84                        1                           1 
    82 r.85                        0                           0 
    83 r.86                        0                           0 
    84 r.87                        0                           0 
    85 r.88                        1                           1 
    86 r.89                        0                           0 
    87 r.90                        0                           0 
    88 r.91                        1                           1 
    89 r.92                        0                           0 
    90 r.93                        0                           1 
    91 r.95                        2             1               
    92 r.96                       -1                           0 
    93 r.97                       -1                           0 
    94 r.99                        2             1               
    95 r.100                      -1                           0 
    96 r.101                      -1                           0 
    97 r.103                       1             1               
    98 r.104                       0                           0 
    99 r.105                       0                           0 
   100 r.107                       2             1               
   101 r.108                      -1                           0 
   102 r.109                      -1                           0 
   103 r.111                       1             1               
   104 r.112                       0                           0 
   105 r.113                      -1                           0 
   106 r.115                       1             1               
   107 r.116                       0                           0 
   108 r.117                      -1                           0 
   109 PAIR_0_1                    1             1               
   110 r.120                       1             1               
   111 r.121                      -1                           0 
   112 r.122                       0                           0 
   113 r.124                       1             1               
   114 r.125                      -1                           0 
   115 r.126                       0                           0 
   116 r.128                       1             1               
   117 r.129                      -1                           0 
   118 r.130                       0                           0 
   119 r.132                       1             1               
   120 r.133                      -1                           0 
   121 r.134                       0                           0 
   122 r.136                       1             1               
   123 r.137                      -1                           0 
   124 r.138                       0                           0 
   125 r.140                       1             1               
   126 r.141                       0                           0 
   127 r.142                       0                           0 
   128 PAIR_1_2                    1             1               
   129 r.145                       1             1               
   130 r.146                       0                           0 
   131 r.147                      -1                           0 
   132 r.149                       1             1               
   133 r.150                       0                           0 
   134 r.151                      -1                           0 
   135 r.153                       1             1               
   136 r.154                       0                           0 
   137 r.155                      -1                           0 
   138 r.157                       1             1               
   139 r.158                       0                           0 
   140 r.159                      -1                           0 
   141 r.161                       1             1               
   142 r.162                       0                           0 
   143 r.163                      -1                           0 
   144 r.165                       1             1               
   145 r.166                       0                           0 
   146 r.167                       0                           0 
   147 PAIR_2_3                    1             1               
   148 r.170                       1             1               
   149 r.171                      -1                           0 
   150 r.172                       0                           0 
   151 r.174                       1             1               
   152 r.175                      -1                           0 
   153 r.176                       0                           0 
   154 r.178                       1             1               
   155 r.179                      -1                           0 
   156 r.180                       0                           0 
   157 r.182                       1             1               
   158 r.183                      -1                           0 
   159 r.184                       0                           0 
   160 r.186                       1             1               
   161 r.187                       0                           0 
   162 r.188                       0                           0 
   163 r.190                       1             1               
   164 r.191                      -1                           0 
   165 r.192                       0                           0 
   166 PAIR_3_4                    1             1               
   167 r.195                       1             1               
   168 r.196                       0                           0 
   169 r.197                      -1                           0 
   170 r.199                       1             1               
   171 r.200                       0                           0 
   172 r.201                      -1                           0 
   173 r.203                       1             1               
   174 r.204                       0                           0 
   175 r.205                      -1                           0 
   176 r.207                       1             1               
   177 r.208                       0                           0 
   178 r.209                      -1                           0 
   179 r.211                       1             1               
   180 r.212                       0                           0 
   181 r.213                       0                           0 
   182 r.215                       1             1               
   183 r.216                       0                           0 
   184 r.217                      -1                           0 
   185 PAIR_4_5                    1             1               
   186 r.220                       2             1               
   187 r.221                      -1                           0 
   188 r.222                      -1                           0 
   189 r.224                       1             1               
   190 r.225                       0                           0 
   191 r.226                       0                           0 
   192 r.228                       2             1               
   193 r.229                      -1                           0 
   194 r.230                      -1                           0 
   195 r.232                       2             1               
   196 r.233                      -1                           0 
   197 r.234                      -1                           0 
   198 r.236                       1             1               
   199 r.237                      -1                           0 
   200 r.238                       0                           0 
   201 r.240                       1             1               
   202 r.241                      -1                           0 
   203 r.242                       0                           0 
   204 PAIR_5_0                    1             1               
   205 r.245                       4             1               
   206 r.246                       6             1               
   207 r.247                       1             1               
   208 r.248                       6             1               
   209 r.249                       1             1               
   210 r.250                       6             1               
   211 Bagsize0                    0             0             = 
   212 Bagsize1                    0             0             = 
   213 Bagsize2                    0             0             = 
   214 Bagsize3                    0             0             = 
   215 Bagsize4                    0             0             = 

   No. Column name       Activity     Lower bound   Upper bound
------ ------------    ------------- ------------- -------------
     1 X_0_0        *              1             0             1 
     2 X_1_0        *              1             0             1 
     3 X_2_0        *              0             0             1 
     4 X_3_0        *              1             0             1 
     5 X_4_0        *              0             0             1 
     6 X_5_0        *              1             0             1 
     7 X_0_1        *              1             0             1 
     8 A_0_0        *              1             0             1 
     9 X_0_2        *              1             0             1 
    10 X_0_3        *              1             0             1 
    11 X_0_4        *              0             0             1 
    12 X_0_5        *              0             0             1 
    13 A_0_1        *              1             0             1 
    14 A_0_2        *              0             0             1 
    15 A_0_3        *              0             0             1 
    16 A_0_4        *              0             0             1 
    17 X_1_1        *              1             0             1 
    18 A_1_0        *              1             0             1 
    19 X_1_2        *              1             0             1 
    20 X_1_3        *              1             0             1 
    21 X_1_4        *              1             0             1 
    22 X_1_5        *              1             0             1 
    23 A_1_1        *              1             0             1 
    24 A_1_2        *              1             0             1 
    25 A_1_3        *              1             0             1 
    26 A_1_4        *              0             0             1 
    27 X_2_1        *              0             0             1 
    28 A_2_0        *              1             0             1 
    29 X_2_2        *              0             0             1 
    30 X_2_3        *              0             0             1 
    31 X_2_4        *              0             0             1 
    32 X_2_5        *              1             0             1 
    33 A_2_1        *              1             0             1 
    34 A_2_2        *              1             0             1 
    35 A_2_3        *              1             0             1 
    36 A_2_4        *              0             0             1 
    37 X_3_1        *              1             0             1 
    38 A_3_0        *              1             0             1 
    39 X_3_2        *              1             0             1 
    40 X_3_3        *              1             0             1 
    41 X_3_4        *              1             0             1 
    42 X_3_5        *              1             0             1 
    43 A_3_1        *              1             0             1 
    44 A_3_2        *              1             0             1 
    45 A_3_3        *              1             0             1 
    46 A_3_4        *              0             0             1 
    47 X_4_1        *              0             0             1 
    48 A_4_0        *              1             0             1 
    49 X_4_2        *              0             0             1 
    50 X_4_3        *              0             0             1 
    51 X_4_4        *              1             0             1 
    52 X_4_5        *              0             0             1 
    53 A_4_1        *              1             0             1 
    54 A_4_2        *              1             0             1 
    55 A_4_3        *              0             0             1 
    56 A_4_4        *              0             0             1 
    57 X_5_1        *              1             0             1 
    58 A_5_0        *              1             0             1 
    59 X_5_2        *              1             0             1 
    60 X_5_3        *              1             0             1 
    61 X_5_4        *              1             0             1 
    62 X_5_5        *              1             0             1 
    63 A_5_1        *              1             0             1 
    64 A_5_2        *              1             0             1 
    65 A_5_3        *              1             0             1 
    66 A_5_4        *              0             0             1 
    67 PAIR_0_1_0   *              0             0             1 
    68 PAIR_0_1_1   *              0             0             1 
    69 PAIR_0_1_2   *              1             0             1 
    70 PAIR_0_1_3   *              0             0             1 
    71 PAIR_0_1_4   *              0             0             1 
    72 PAIR_0_1_5   *              0             0             1 
    73 PAIR_1_2_0   *              0             0             1 
    74 PAIR_1_2_1   *              0             0             1 
    75 PAIR_1_2_2   *              0             0             1 
    76 PAIR_1_2_3   *              0             0             1 
    77 PAIR_1_2_4   *              0             0             1 
    78 PAIR_1_2_5   *              1             0             1 
    79 PAIR_2_3_0   *              0             0             1 
    80 PAIR_2_3_1   *              0             0             1 
    81 PAIR_2_3_2   *              0             0             1 
    82 PAIR_2_3_3   *              0             0             1 
    83 PAIR_2_3_4   *              0             0             1 
    84 PAIR_2_3_5   *              1             0             1 
    85 PAIR_3_4_0   *              0             0             1 
    86 PAIR_3_4_1   *              0             0             1 
    87 PAIR_3_4_2   *              0             0             1 
    88 PAIR_3_4_3   *              0             0             1 
    89 PAIR_3_4_4   *              1             0             1 
    90 PAIR_3_4_5   *              0             0             1 
    91 PAIR_4_5_0   *              0             0             1 
    92 PAIR_4_5_1   *              0             0             1 
    93 PAIR_4_5_2   *              0             0             1 
    94 PAIR_4_5_3   *              0             0             1 
    95 PAIR_4_5_4   *              1             0             1 
    96 PAIR_4_5_5   *              0             0             1 
    97 PAIR_5_0_0   *              0             0             1 
    98 PAIR_5_0_1   *              1             0             1 
    99 PAIR_5_0_2   *              0             0             1 
   100 PAIR_5_0_3   *              0             0             1 
   101 PAIR_5_0_4   *              0             0             1 
   102 PAIR_5_0_5   *              0             0             1 

Integer feasibility conditions:

KKT.PE: max.abs.err = 0.00e+00 on row 0
        max.rel.err = 0.00e+00 on row 0
        High quality

KKT.PB: max.abs.err = 0.00e+00 on row 0
        max.rel.err = 0.00e+00 on row 0
        High quality

End of output
